0	7
0	12
0	14
0	1
0	13
0	15
0	8
0	4
0	11
0	3
1	6
1	10
1	14
1	13
1	5
1	0
1	8
1	2
2	14
2	13
2	1
2	6
2	8
2	7
2	11
2	0
2	15
2	2
2	5
2	12
2	9
2	3
3	9
3	12
3	3
3	8
4	6
4	4
4	7
4	1
4	14
4	2